Comps = {frontend0, frontend1, backend0, backend1, backend2, database0, database1};
mustComps = {frontend0, frontend1};
Flavs = {tiny, medium, large};
Nodes = {n1, n2, n3, n4};
CRes = {CPU, RAM, storage, bwIn, bwOut};
NRes = {ssl, fwall, encr, avail, latency};
Flav = [{medium, large}, {medium, large}, {tiny, medium, large}, {tiny, medium, large}, {tiny, medium, large}, {large}, {large}];
Uses = [{backend2}, {backend2}, {backend2}, {backend2}, {}, {}, {}, {database0}, {database1}, {database0}, {database0}, {database1}, {database0}, {}, {}];
MAX_BOUND = 1000000;

worstBounds = [0, 0, 0, 0, 0, 0, 0, 0, 0, MAX_BOUND];
bestBounds = [MAX_BOUND - i | i in worstBounds];

comReq = array2d(CompFlavs, Res, [
  2, 293, 246, 396, 761, 1, 0, 1, 96, MAX_BOUND,
  4, 213, 376, 803, 546, 0, 0, 1, 96, MAX_BOUND,
  4, 246, 274, 656, 777, 1, 1, 0, 97, MAX_BOUND,
  2, 407, 363, 492, 457, 1, 1, 1, 95, MAX_BOUND,
  4, 500, 328, 627, 377, 0, 1, 1, 97, MAX_BOUND,
  2, 500, 282, 550, 799, 1, 1, 1, 96, MAX_BOUND,
  2, 217, 333, 932, 297, 1, 1, 0, 95, MAX_BOUND,
  8, 396, 498, 278, 981, 1, 1, 1, 95, MAX_BOUND,
  2, 365, 482, 459, 1000, 1, 1, 1, 95, MAX_BOUND,
  2, 487, 360, 449, 873, 0, 1, 0, 95, MAX_BOUND,
  2, 396, 243, 518, 237, 1, 1, 1, 95, MAX_BOUND,
  4, 214, 228, 269, 405, 0, 0, 1, 96, MAX_BOUND,
  2, 227, 500, 981, 374, 1, 1, 0, 95, MAX_BOUND,
  2, 285, 339, 977, 797, 0, 1, 0, 97, MAX_BOUND,
  8, 336, 337, 217, 316, 1, 0, 1, 97, MAX_BOUND,
]);

nodeCap = array2d(Nodes0, Res, [bestBounds[r] | r in Res] ++ [
  16, 64506, 170087, 24931, 23868, 0, 0, 1, 98, 0,
  8, 36283, 220318, 11152, 11959, 1, 1, 1, 99, 0,
  16, 94140, 594832, 20734, 17098, 1, 1, 1, 99, 0,
  32, 112249, 221612, 20810, 20902, 1, 1, 1, 99, 0,
]);

cost = array2d(Nodes0, Res, [
  0, 0, 0, 0, 0, 0, 0, 0, 0, 0, % no node
  13, 10, 21, 0, 0, 0, 0, 0, 0, 0,
  17, 7, 22, 0, 0, 0, 0, 0, 0, 0,
  17, 9, 23, 0, 0, 0, 0, 0, 0, 0,
  11, 5, 20, 0, 0, 0, 0, 0, 0, 0,
]);

cons = array2d(Nodes0, Res, [
  0, 0, 0, 0, 0, 0, 0, 0, 0, 0, % no node
  25, 49, 25, 0, 0, 0, 0, 0, 0, 0,
  3, 2, 5, 0, 0, 0, 0, 0, 0, 0,
  19, 45, 24, 0, 0, 0, 0, 0, 0, 0,
  47, 36, 20, 0, 0, 0, 0, 0, 0, 0,
]);

costWeight = 0;
consWeight = 1;

costBudget = 44283;
consBudget = 45163;

depReq = array3d(Comps, Comps, Res, [
  if c1 = frontend0 /\ c2 = backend2 /\ r = N(avail) then
    97
  elseif c1 = frontend1 /\ c2 = backend2 /\ r = N(avail) then
    97
  elseif c1 = frontend0 /\ c2 = backend0 /\ r = N(avail) then
    96
  elseif c1 = frontend0 /\ c2 = backend1 /\ r = N(avail) then
    97
  elseif c1 = frontend1 /\ c2 = backend1 /\ r = N(avail) then
    97
  elseif c1 = frontend1 /\ c2 = backend0 /\ r = N(avail) then
    97
  else
    worstBounds[r]
  endif | c1 in Comps, c2 in Comps, r in Res]);

linkCap = array3d(Nodes0, Nodes0, Res, [
  if ni = 0 \/ nj = 0 then
    bestBounds[r]
  elseif ni = nj /\ r = N(avail) then
    nodeCap[ni,r]
  elseif {ni, nj} = {n1, n4} /\ r = N(avail) then
    98
  elseif {ni, nj} = {n1, n3} /\ r = N(avail) then
    98
  elseif {ni, nj} = {n1, n2} /\ r = N(avail) then
    99
  elseif {ni, nj} = {n3, n4} /\ r = N(avail) then
    99
  elseif {ni, nj} = {n2, n4} /\ r = N(avail) then
    99
  elseif {ni, nj} = {n2, n3} /\ r = N(avail) then
    99
  else
    worstBounds[r]
  endif | ni in Nodes0, nj in Nodes0, r in Res]);

imp = array2d(Comps, Flavs, [
  1, 5, 10,
  3, 5, 9,
  4, 5, 9,
  8, 9, 10,
  2, 3, 10,
  1, 5, 9,
  2, 3, 7,
]);

